45
1 0 95
2 0 48
2 1 61
3 0 13
3 1 87
3 2 26
4 0 84
4 1 53
4 2 57
4 3 41
5 0 99
5 1 66
5 2 26
5 3 83
5 4 60
6 0 35
6 1 54
6 2 94
6 3 63
6 4 82
6 5 18
7 0 20
7 1 14
7 2 91
7 3 59
7 4 30
7 5 59
7 6 100
8 0 69
8 1 2
8 2 91
8 3 26
8 4 88
8 5 73
8 6 84
8 7 75
9 0 8
9 1 85
9 2 3
9 3 43
9 4 17
9 5 98
9 6 95
9 7 31
9 8 36
10 0 38
10 1 67
10 2 7
10 3 21
10 4 94
10 5 84
10 6 97
10 7 36
10 8 8
10 9 70
11 0 3
11 1 16
11 2 91
11 3 88
11 4 59
11 5 92
11 6 80
11 7 8
11 8 67
11 9 24
11 10 12
12 0 19
12 1 11
12 2 73
12 3 77
12 4 41
12 5 3
12 6 28
12 7 86
12 8 21
12 9 23
12 10 26
12 11 53
13 0 36
13 1 67
13 2 71
13 3 86
13 4 41
13 5 93
13 6 27
13 7 30
13 8 20
13 9 53
13 10 29
13 11 23
13 12 42
14 0 30
14 1 52
14 2 27
14 3 18
14 4 33
14 5 28
14 6 73
14 7 18
14 8 14
14 9 100
14 10 28
14 11 3
14 12 4
14 13 48
15 0 56
15 1 54
15 2 92
15 3 35
15 4 51
15 5 32
15 6 88
15 7 56
15 8 46
15 9 88
15 10 47
15 11 82
15 12 49
15 13 100
15 14 38
16 0 35
16 1 36
16 2 22
16 3 100
16 4 43
16 5 13
16 6 63
16 7 99
16 8 44
16 9 33
16 10 29
16 11 95
16 12 64
16 13 13
16 14 97
16 15 77
17 0 62
17 1 9
17 2 12
17 3 13
17 4 26
17 5 28
17 6 17
17 7 54
17 8 74
17 9 82
17 10 59
17 11 57
17 12 80
17 13 29
17 14 32
17 15 23
17 16 38
18 0 49
18 1 50
18 2 83
18 3 16
18 4 42
18 5 65
18 6 61
18 7 94
18 8 54
18 9 61
18 10 98
18 11 68
18 12 67
18 13 2
18 14 22
18 15 55
18 16 9
18 17 13
19 0 95
19 1 55
19 2 74
19 3 12
19 4 75
19 5 36
19 6 41
19 7 31
19 8 65
19 9 62
19 10 56
19 11 93
19 12 51
19 13 66
19 14 2
19 15 36
19 16 40
19 17 47
19 18 68
20 0 88
20 1 48
20 2 44
20 3 2
20 4 51
20 5 15
20 6 4
20 7 6
20 8 33
20 9 31
20 10 72
20 11 2
20 12 48
20 13 4
20 14 36
20 15 84
20 16 67
20 17 3
20 18 32
20 19 33
21 0 91
21 1 70
21 2 89
21 3 53
21 4 77
21 5 65
21 6 47
21 7 75
21 8 38
21 9 92
21 10 5
21 11 7
21 12 9
21 13 40
21 14 72
21 15 57
21 16 30
21 17 4
21 18 23
21 19 38
21 20 7
22 0 100
22 1 84
22 2 29
22 3 38
22 4 71
22 5 6
22 6 79
22 7 26
22 8 51
22 9 96
22 10 41
22 11 5
22 12 44
22 13 16
22 14 95
22 15 64
22 16 17
22 17 65
22 18 98
22 19 35
22 20 38
22 21 11
23 0 60
23 1 77
23 2 83
23 3 34
23 4 34
23 5 87
23 6 4
23 7 96
23 8 81
23 9 6
23 10 43
23 11 58
23 12 42
23 13 8
23 14 15
23 15 90
23 16 14
23 17 87
23 18 3
23 19 70
23 20 37
23 21 78
23 22 44
24 0 50
24 1 21
24 2 83
24 3 88
24 4 33
24 5 75
24 6 89
24 7 68
24 8 11
24 9 20
24 10 86
24 11 6
24 12 26
24 13 94
24 14 36
24 15 49
24 16 84
24 17 80
24 18 47
24 19 11
24 20 16
24 21 21
24 22 48
24 23 51
25 0 68
25 1 3
25 2 77
25 3 34
25 4 71
25 5 3
25 6 23
25 7 35
25 8 19
25 9 58
25 10 78
25 11 3
25 12 53
25 13 92
25 14 8
25 15 79
25 16 35
25 17 96
25 18 34
25 19 32
25 20 54
25 21 63
25 22 80
25 23 85
25 24 100
26 0 17
26 1 43
26 2 6
26 3 9
26 4 89
26 5 78
26 6 14
26 7 40
26 8 26
26 9 11
26 10 22
26 11 59
26 12 38
26 13 26
26 14 100
26 15 39
26 16 27
26 17 74
26 18 45
26 19 86
26 20 36
26 21 16
26 22 93
26 23 68
26 24 21
26 25 93
27 0 2
27 1 95
27 2 47
27 3 80
27 4 85
27 5 77
27 6 35
27 7 74
27 8 96
27 9 74
27 10 27
27 11 16
27 12 66
27 13 91
27 14 49
27 15 59
27 16 69
27 17 98
27 18 82
27 19 12
27 20 56
27 21 76
27 22 67
27 23 45
27 24 71
27 25 15
27 26 10
28 0 18
28 1 70
28 2 14
28 3 74
28 4 74
28 5 79
28 6 68
28 7 47
28 8 16
28 9 67
28 10 33
28 11 46
28 12 47
28 13 32
28 14 5
28 15 89
28 16 44
28 17 19
28 18 58
28 19 41
28 20 11
28 21 11
28 22 25
28 23 26
28 24 10
28 25 72
28 26 16
28 27 43
29 0 74
29 1 30
29 2 10
29 3 50
29 4 63
29 5 26
29 6 59
29 7 90
29 8 89
29 9 76
29 10 94
29 11 73
29 12 57
29 13 4
29 14 36
29 15 49
29 16 64
29 17 64
29 18 17
29 19 19
29 20 71
29 21 46
29 22 94
29 23 85
29 24 45
29 25 37
29 26 14
29 27 30
29 28 18
30 0 83
30 1 27
30 2 70
30 3 25
30 4 75
30 5 98
30 6 38
30 7 11
30 8 46
30 9 39
30 10 80
30 11 23
30 12 62
30 13 68
30 14 64
30 15 23
30 16 47
30 17 70
30 18 50
30 19 91
30 20 54
30 21 12
30 22 69
30 23 1
30 24 98
30 25 37
30 26 99
30 27 92
30 28 1
30 29 43
31 0 38
31 1 71
31 2 7
31 3 26
31 4 20
31 5 4
31 6 82
31 7 22
31 8 21
31 9 100
31 10 1
31 11 7
31 12 46
31 13 93
31 14 83
31 15 16
31 16 98
31 17 53
31 18 33
31 19 2
31 20 69
31 21 17
31 22 93
31 23 44
31 24 8
31 25 96
31 26 21
31 27 69
31 28 45
31 29 100
31 30 44
32 0 58
32 1 94
32 2 3
32 3 58
32 4 43
32 5 44
32 6 26
32 7 63
32 8 14
32 9 22
32 10 11
32 11 64
32 12 95
32 13 94
32 14 18
32 15 76
32 16 71
32 17 14
32 18 70
32 19 8
32 20 45
32 21 66
32 22 25
32 23 19
32 24 86
32 25 43
32 26 45
32 27 68
32 28 89
32 29 52
32 30 98
32 31 3
33 0 41
33 1 57
33 2 17
33 3 63
33 4 92
33 5 85
33 6 83
33 7 83
33 8 54
33 9 61
33 10 31
33 11 24
33 12 84
33 13 51
33 14 83
33 15 83
33 16 29
33 17 21
33 18 46
33 19 37
33 20 25
33 21 47
33 22 54
33 23 29
33 24 94
33 25 34
33 26 27
33 27 20
33 28 74
33 29 26
33 30 69
33 31 32
33 32 72
34 0 18
34 1 46
34 2 81
34 3 28
34 4 93
34 5 4
34 6 76
34 7 39
34 8 65
34 9 22
34 10 6
34 11 64
34 12 82
34 13 5
34 14 71
34 15 21
34 16 18
34 17 68
34 18 22
34 19 47
34 20 84
34 21 68
34 22 97
34 23 73
34 24 7
34 25 78
34 26 96
34 27 47
34 28 70
34 29 6
34 30 11
34 31 97
34 32 13
34 33 22
35 0 12
35 1 22
35 2 44
35 3 28
35 4 60
35 5 50
35 6 90
35 7 85
35 8 80
35 9 6
35 10 4
35 11 99
35 12 43
35 13 76
35 14 10
35 15 4
35 16 17
35 17 60
35 18 34
35 19 20
35 20 88
35 21 43
35 22 74
35 23 55
35 24 73
35 25 40
35 26 94
35 27 86
35 28 70
35 29 95
35 30 43
35 31 42
35 32 18
35 33 19
35 34 51
36 0 63
36 1 51
36 2 13
36 3 31
36 4 27
36 5 81
36 6 21
36 7 3
36 8 43
36 9 56
36 10 88
36 11 20
36 12 70
36 13 46
36 14 24
36 15 47
36 16 16
36 17 74
36 18 5
36 19 44
36 20 6
36 21 98
36 22 63
36 23 36
36 24 30
36 25 99
36 26 41
36 27 84
36 28 29
36 29 37
36 30 7
36 31 82
36 32 56
36 33 81
36 34 69
36 35 40
37 0 24
37 1 24
37 2 32
37 3 48
37 4 42
37 5 35
37 6 79
37 7 8
37 8 91
37 9 14
37 10 72
37 11 88
37 12 84
37 13 52
37 14 6
37 15 40
37 16 27
37 17 8
37 18 67
37 19 76
37 20 71
37 21 63
37 22 72
37 23 8
37 24 4
37 25 96
37 26 83
37 27 76
37 28 56
37 29 14
37 30 38
37 31 41
37 32 88
37 33 20
37 34 36
37 35 6
37 36 99
38 0 92
38 1 69
38 2 85
38 3 71
38 4 26
38 5 81
38 6 50
38 7 36
38 8 55
38 9 4
38 10 17
38 11 39
38 12 42
38 13 11
38 14 51
38 15 19
38 16 21
38 17 54
38 18 93
38 19 46
38 20 32
38 21 19
38 22 59
38 23 80
38 24 59
38 25 84
38 26 48
38 27 36
38 28 90
38 29 70
38 30 62
38 31 74
38 32 37
38 33 35
38 34 28
38 35 58
38 36 3
38 37 32
39 0 68
39 1 37
39 2 72
39 3 37
39 4 75
39 5 43
39 6 56
39 7 25
39 8 69
39 9 27
39 10 41
39 11 47
39 12 45
39 13 62
39 14 3
39 15 24
39 16 57
39 17 82
39 18 88
39 19 81
39 20 78
39 21 48
39 22 80
39 23 75
39 24 30
39 25 53
39 26 98
39 27 85
39 28 98
39 29 9
39 30 95
39 31 81
39 32 40
39 33 68
39 34 63
39 35 83
39 36 77
39 37 93
39 38 43
40 0 81
40 1 28
40 2 57
40 3 13
40 4 69
40 5 9
40 6 49
40 7 5
40 8 13
40 9 15
40 10 12
40 11 51
40 12 81
40 13 65
40 14 40
40 15 82
40 16 68
40 17 71
40 18 16
40 19 33
40 20 17
40 21 54
40 22 53
40 23 99
40 24 19
40 25 36
40 26 94
40 27 70
40 28 30
40 29 59
40 30 57
40 31 44
40 32 54
40 33 31
40 34 45
40 35 69
40 36 64
40 37 86
40 38 62
40 39 90
41 0 74
41 1 10
41 2 90
41 3 89
41 4 74
41 5 80
41 6 27
41 7 43
41 8 100
41 9 5
41 10 95
41 11 49
41 12 87
41 13 68
41 14 62
41 15 72
41 16 44
41 17 18
41 18 27
41 19 39
41 20 41
41 21 55
41 22 86
41 23 67
41 24 88
41 25 99
41 26 66
41 27 93
41 28 68
41 29 48
41 30 80
41 31 77
41 32 28
41 33 67
41 34 63
41 35 55
41 36 61
41 37 46
41 38 86
41 39 84
41 40 24
42 0 34
42 1 50
42 2 14
42 3 74
42 4 43
42 5 11
42 6 52
42 7 20
42 8 56
42 9 92
42 10 33
42 11 16
42 12 4
42 13 78
42 14 100
42 15 64
42 16 88
42 17 1
42 18 42
42 19 71
42 20 57
42 21 68
42 22 71
42 23 100
42 24 78
42 25 77
42 26 25
42 27 11
42 28 49
42 29 26
42 30 16
42 31 64
42 32 50
42 33 25
42 34 75
42 35 49
42 36 25
42 37 50
42 38 65
42 39 47
42 40 39
42 41 98
43 0 46
43 1 65
43 2 71
43 3 42
43 4 29
43 5 63
43 6 8
43 7 1
43 8 57
43 9 86
43 10 75
43 11 48
43 12 78
43 13 82
43 14 11
43 15 39
43 16 15
43 17 36
43 18 59
43 19 50
43 20 52
43 21 78
43 22 55
43 23 20
43 24 75
43 25 33
43 26 22
43 27 63
43 28 50
43 29 28
43 30 97
43 31 93
43 32 19
43 33 66
43 34 58
43 35 69
43 36 52
43 37 35
43 38 31
43 39 56
43 40 85
43 41 15
43 42 83
44 0 60
44 1 21
44 2 1
44 3 32
44 4 87
44 5 98
44 6 50
44 7 42
44 8 25
44 9 28
44 10 21
44 11 76
44 12 54
44 13 64
44 14 71
44 15 19
44 16 37
44 17 67
44 18 27
44 19 9
44 20 41
44 21 60
44 22 34
44 23 24
44 24 90
44 25 96
44 26 59
44 27 16
44 28 55
44 29 85
44 30 11
44 31 98
44 32 30
44 33 53
44 34 80
44 35 19
44 36 49
44 37 18
44 38 36
44 39 79
44 40 41
44 41 15
44 42 15
44 43 77
